experiment/data/lkh-res/Vrp-Set-A-n37/Vrp-Set-A-n37-lkh/1.lkh1.vrp
NAME : 1
COMMENT : CVRP Instance
TYPE : CVRP
DIMENSION : 37
EDGE_WEIGHT_TYPE : EUC_2D
CAPACITY : 100
NODE_COORD_SECTION
1	8600	2200
2	2900	1700
3	400	5000
4	2500	1300
5	6700	3700
6	1300	700
7	6200	1500
8	8400	3800
9	3400	300
10	1900	4500
11	4200	7600
12	4000	8600
13	2500	9400
14	6300	5700
15	7500	2400
16	6100	8500
17	8700	3800
18	5400	3900
19	6600	3400
20	4600	3900
21	4700	1700
22	2100	5400
23	1900	8300
24	100	8200
25	9400	2800
26	8200	7200
27	4100	5900
28	10000	7700
29	100	5700
30	9600	700
31	5700	8200
32	4700	3800
33	6800	8900
34	1600	3600
35	5100	3800
36	8300	7400
37	8400	200
DEMAND_SECTION
1	0
2	1
3	23
4	23
5	5
6	7
7	18
8	12
9	20
10	19
11	19
12	16
13	2
14	26
15	13
16	19
17	17
18	14
19	8
20	10
21	5
22	19
23	12
24	9
25	18
26	4
27	20
28	8
29	3
30	18
31	26
32	21
33	21
34	8
35	19
36	66
37	21
DEPOT_SECTION
1
-1
EOF
