experiment/data/lkh-res/Vrp-Set-A-n37/Vrp-Set-A-n37-lkh/1.lkh1.tour
NAME : 1.95086.tour
COMMENT : Length = 95086
COMMENT : Found by LKH-3 [Keld Helsgaun] Tue Apr  9 00:41:21 2024
TYPE : TOUR
DIMENSION : 42
TOUR_SECTION
1
19
18
35
2
4
6
9
21
42
25
30
37
7
15
38
17
36
26
8
40
14
31
16
33
28
41
34
3
29
24
23
13
12
11
39
5
27
22
10
20
32
-1
EOF
